vertex_cover/sample_graph.sol
# Objective value = 2
vertex0 0
vertex1 0
vertex2 1
vertex3 0
vertex4 1
